NAME : in_house_9_15
TYPE : TSP
DIMENSION : 9
EDGE_WEIGHT_TYPE : EXPLICIT
EDGE_WEIGHT_FORMAT : UPPER_ROW
COMMENT : INVERSION_SHIFT=7
EDGE_WEIGHT_SECTION
36
46
5
69
52
41
11
1
19
22
33
39
74
51
19
25
22
66
68
6
68
69
52
56
80
10
10
48
4
60
58
24
3
65
42
17
